# Solution for model count
# Objective value = 10
z#1 0
z#2 1
z#3 0
z#4 0
z#5 0
z#6 0
z#7 0
z#8 1
z#9 1
z#10 1
z#11 1
z#12 1
z#13 0
z#14 1
z#15 1
z#16 0
z#17 0
z#18 1
z#19 0
z#20 0
z#21 0
z#22 0
z#23 0
z#24 1
x#24 2791
x#23 0
x#22 0
x#21 0
x#20 0
x#19 0
x#18 856
x#17 0
x#16 0
x#15 2678
x#14 179
x#13 0
x#12 86
x#11 1062
x#10 62
x#9 820
x#8 362
x#7 0
x#6 0
x#5 0
x#4 0
x#3 0
x#2 1104
x#1 0
